mixintcount/benchmarks/random_v2l/3_3_1584.smt2
(set-logic QF_LIA)
(set-info :ran/ran2.smt2)
(set-info :smt-lib-version 2.0)
(declare-fun x1 () Int)
(declare-fun x2 () Int)
(declare-fun x3 () Int)
(assert (<= (+ (* 6 x1) (* 0 x2) (* (- 6) x3) ) 156))
(assert (<= (+ (* 6 x1) (* (- 3) x2) (* 10 x3) ) (- 1381)))
(assert (<= (+ (* (- 8) x1) (* 8 x2) (* 3 x3) ) (- 1099)))
(assert (<= (+ (* (- 10) x1) (* 10 x2) (* 7 x3) ) 461))
(assert (<= (+ (* 10 x1) (* 1 x2) (* (- 6) x3) ) 806))
(assert (<= (+ (* 2 x1) (* 3 x2) (* (- 3) x3) ) 308))
(assert (<= (+ (* 1 x1) (* 0 x2) (* 0 x3) ) 1584))
(assert (<= (+ (* (- 1) x1) (* 0 x2) (* 0 x3) ) 1584))
(assert (<= (+ (* 0 x1) (* 1 x2) (* 0 x3) ) 1584))
(assert (<= (+ (* 0 x1) (* (- 1) x2) (* 0 x3) ) 1584))
(assert (<= (+ (* 0 x1) (* 0 x2) (* 1 x3) ) 1584))
(assert (<= (+ (* 0 x1) (* 0 x2) (* (- 1) x3) ) 1584))
