mixintcount/benchmarks/random_v2l/3_3_1584.in
12 5
#	x1	x2	x3;		0 = Real; 1 = Integer
	1	1	1
1	6	0	-6	156
1	6	-3	10	-1381
1	-8	8	3	-1099
1	-10	10	7	461
1	10	1	-6	806
1	2	3	-3	308
1	1	0	0	1584
1	-1	0	0	1584
1	0	1	0	1584
1	0	-1	0	1584
1	0	0	1	1584
1	0	0	-1	1584
